db/data/67573223494883044130109213331266821572.z3.out
-------------------
2500.173028600
